12,3	0,0	18,0	18,5	0,0	0,0	0,0	0,0	0,0	12,9
5,1	8,4	0,0	14,8	17,4	0,0	0,0	7,1	0,0	0,0
0,0	0,0	18,8	0,0	16,8	13,9	0,0	0,0	19,4	0,0
5,7	0,0	5,5	0,0	0,0	0,0	11,3	0,0	0,0	0,0
0,0	16,5	0,0	10,4	15,5	0,0	0,0	14,1	0,0	0,0
0,0	8,0	11,6	0,0	6,1	11,1	0,0	0,0	6,1	0,0
0,0	18,9	0,0	18,5	0,0	0,0	9,0	0,0	0,0	15,1
15,2	0,0	6,6	0,0	0,0	0,0	0,0	0,0	0,0	13,5
0,0	11,5	0,0	14,1	7,5	0,0	0,0	17,0	0,0	0,0
0,0	0,0	18,4	0,0	0,0	7,1	7,7	0,0	0,0	14,8
0,0	11,8	0,0	0,0	16,8	0,0	14,7	0,0	12,7	8,2
18,8	0,0	18,9	0,0	7,5	0,0	20,0	9,7	11,8	0,0
0,0	5,4	0,0	0,0	0,0	17,0	0,0	19,5	5,6	10,2
13,9	8,8	19,6	0,0	0,0	14,8	0,0	16,8	7,1	0,0
9,9	0,0	11,3	0,0	7,4	13,5	15,8	11,2	0,0	0,0
0,0	15,5	0,0	14,9	0,0	10,3	0,0	7,1	0,0	0,0
5,5	0,0	13,4	19,9	14,1	0,0	0,0	7,8	0,0	0,0
0,0	0,0	16,2	0,0	0,0	7,2	15,0	0,0	13,1	17,1
17,3	0,0	0,0	19,4	18,5	12,7	18,2	7,7	0,0	17,0
0,0	9,5	0,0	17,5	0,0	0,0	5,4	0,0	19,1	8,1
									
2,9	4,9	2,8	3,0	4,1	2,8	4,0	4,8	4,1	4,3
